60
2 0 2
3 1 4
4 2 4
4 3 10
5 3 10
5 4 7
6 0 7
6 3 10
6 5 10
7 0 1
7 3 6
7 4 7
7 5 4
7 6 1
8 0 6
8 1 5
8 3 2
8 4 9
8 5 1
9 4 5
9 6 3
10 1 10
10 4 1
10 6 10
10 9 8
11 1 5
11 4 7
11 5 1
11 6 3
11 8 1
11 9 9
12 1 9
12 2 9
12 3 3
12 5 5
12 9 8
12 10 6
12 11 4
13 10 9
13 11 6
14 1 4
14 2 9
14 3 3
14 5 9
14 7 9
14 12 4
14 13 8
15 2 7
15 6 6
15 7 6
15 11 3
15 13 8
15 14 3
16 1 9
16 2 2
16 6 8
16 7 7
16 8 9
16 10 10
16 13 7
16 14 10
17 1 7
17 2 5
17 4 3
17 5 8
17 6 1
17 12 10
17 13 8
17 15 1
18 4 4
18 5 8
18 6 3
18 8 9
18 9 1
18 10 3
18 11 9
18 12 7
18 13 8
18 14 3
18 15 10
19 1 10
19 2 10
19 5 3
19 7 9
19 8 5
19 9 8
19 11 10
19 13 8
19 15 7
19 16 4
19 18 8
20 0 2
20 1 3
20 4 8
20 5 2
20 6 2
20 12 1
20 17 8
20 18 5
20 19 9
21 2 8
21 6 3
21 7 9
21 8 1
21 9 3
21 12 3
21 15 9
21 17 10
21 19 3
21 20 9
22 0 3
22 1 4
22 3 9
22 7 10
22 11 1
22 15 7
22 18 9
22 20 9
22 21 7
23 2 3
23 5 1
23 6 2
23 8 10
23 9 7
23 10 8
23 14 3
23 20 7
24 1 10
24 2 9
24 5 4
24 6 7
24 7 6
24 9 1
24 10 4
24 13 1
24 15 1
24 18 2
24 20 6
24 22 10
25 2 3
25 3 3
25 4 3
25 5 8
25 7 3
25 9 6
25 11 8
25 12 3
25 13 6
25 15 9
25 16 7
25 17 7
25 20 6
25 21 6
25 22 1
25 23 2
25 24 9
26 1 7
26 8 1
26 9 3
26 12 4
26 14 2
26 17 9
26 18 4
26 21 3
27 1 5
27 4 1
27 6 8
27 11 8
27 13 7
27 14 6
27 15 3
27 18 1
27 19 8
27 20 5
27 21 3
27 25 10
28 1 4
28 2 5
28 3 4
28 4 7
28 5 4
28 9 2
28 10 1
28 11 2
28 12 3
28 17 9
28 18 2
28 21 8
28 23 1
28 25 10
28 26 7
28 27 1
29 1 7
29 2 7
29 5 1
29 6 3
29 7 1
29 8 2
29 9 8
29 12 2
29 15 8
29 16 8
29 18 8
29 19 5
29 20 4
29 21 1
30 0 6
30 2 8
30 6 4
30 8 3
30 11 1
30 12 7
30 16 9
30 20 4
30 21 3
30 22 3
30 25 7
30 26 4
30 27 7
30 28 9
31 1 7
31 5 10
31 9 4
31 10 10
31 13 3
31 15 8
31 20 7
31 21 1
31 22 9
31 24 2
31 25 5
31 26 7
31 27 1
31 28 7
31 30 6
32 0 5
32 3 5
32 7 4
32 8 8
32 11 10
32 13 9
32 14 4
32 17 4
32 18 5
32 21 8
32 24 4
32 25 7
32 27 1
32 28 8
32 29 1
32 30 9
32 31 7
33 0 5
33 1 2
33 3 1
33 4 5
33 5 2
33 11 9
33 13 8
33 14 8
33 17 7
33 18 6
33 19 6
33 20 10
33 21 5
33 22 9
33 24 7
33 25 4
33 26 3
33 29 10
33 30 2
33 31 6
34 0 3
34 1 10
34 5 1
34 6 5
34 7 6
34 8 7
34 11 1
34 13 1
34 14 8
34 15 9
34 16 6
34 19 2
34 21 9
34 22 9
34 24 1
34 27 2
34 30 6
34 32 7
35 1 9
35 4 6
35 9 2
35 10 4
35 11 5
35 15 9
35 16 10
35 18 10
35 21 6
35 23 5
35 26 9
35 28 6
35 29 5
35 32 3
35 33 8
36 1 6
36 2 10
36 5 3
36 6 4
36 7 1
36 8 5
36 10 10
36 13 2
36 15 9
36 17 5
36 18 10
36 19 2
36 20 9
36 22 6
36 24 1
36 25 4
36 26 7
36 27 8
36 30 6
36 31 9
36 35 10
37 0 3
37 4 4
37 5 10
37 11 5
37 18 6
37 20 5
37 21 2
37 23 6
37 25 4
37 28 1
37 30 1
37 33 10
37 34 2
37 36 4
38 1 1
38 2 8
38 3 9
38 4 6
38 6 6
38 8 10
38 9 10
38 10 8
38 12 1
38 14 6
38 16 4
38 18 7
38 19 4
38 22 3
38 23 4
38 24 5
38 32 3
38 34 3
38 35 1
38 37 7
39 1 9
39 2 9
39 3 3
39 4 9
39 5 7
39 8 9
39 11 2
39 14 4
39 15 1
39 16 7
39 18 6
39 19 9
39 20 5
39 26 2
39 27 3
39 29 3
39 30 1
39 32 4
39 33 6
39 34 2
39 35 9
39 36 2
39 37 4
40 0 1
40 5 10
40 7 8
40 8 10
40 11 6
40 13 6
40 15 8
40 17 7
40 18 4
40 22 9
40 23 8
40 25 10
40 26 1
40 28 4
40 30 3
40 32 6
40 33 8
40 36 8
40 38 5
41 0 8
41 1 3
41 2 4
41 3 8
41 5 2
41 6 1
41 8 6
41 13 6
41 16 9
41 17 10
41 18 8
41 19 6
41 20 1
41 21 2
41 22 4
41 23 9
41 25 8
41 26 5
41 27 10
41 29 1
41 32 4
41 33 10
41 35 6
41 36 9
41 37 7
41 38 10
42 1 10
42 2 6
42 3 8
42 8 7
42 12 4
42 13 5
42 14 3
42 15 1
42 20 10
42 21 1
42 22 10
42 23 8
42 24 1
42 25 7
42 27 6
42 28 5
42 29 1
42 33 8
42 34 6
42 38 9
42 40 3
42 41 9
43 0 3
43 3 2
43 4 5
43 5 3
43 6 1
43 9 6
43 10 7
43 12 2
43 13 9
43 14 10
43 16 10
43 17 2
43 21 4
43 23 7
43 24 4
43 28 3
43 29 7
43 30 9
43 31 4
43 33 1
43 34 7
43 35 9
43 36 9
43 39 9
43 41 3
43 42 4
44 1 8
44 4 6
44 5 1
44 7 4
44 8 4
44 11 9
44 12 5
44 16 9
44 20 4
44 21 10
44 22 6
44 23 5
44 24 8
44 26 1
44 27 3
44 29 6
44 30 3
44 32 4
44 34 6
44 35 5
44 36 8
44 37 9
44 39 7
44 40 10
44 41 3
44 42 9
44 43 4
45 2 1
45 3 7
45 4 3
45 5 7
45 6 6
45 8 3
45 9 7
45 11 5
45 12 2
45 13 6
45 14 2
45 20 6
45 21 4
45 22 7
45 23 10
45 25 9
45 27 2
45 28 5
45 29 5
45 33 9
45 35 4
45 39 8
45 41 9
45 42 10
45 43 1
45 44 9
46 0 2
46 1 3
46 2 2
46 3 2
46 5 6
46 6 9
46 7 9
46 8 2
46 9 2
46 12 7
46 13 5
46 14 1
46 15 3
46 16 10
46 19 10
46 22 1
46 23 1
46 24 6
46 26 1
46 27 8
46 29 6
46 30 4
46 32 3
46 35 1
46 38 4
46 39 3
46 40 10
46 41 2
46 43 10
46 44 10
47 0 8
47 1 8
47 2 3
47 4 7
47 7 9
47 8 8
47 9 6
47 10 9
47 11 2
47 16 10
47 21 10
47 23 4
47 25 1
47 27 1
47 31 10
47 35 4
47 38 5
47 42 2
47 44 4
47 45 3
47 46 3
48 1 4
48 3 5
48 4 10
48 6 8
48 9 4
48 10 1
48 13 8
48 14 2
48 15 5
48 16 4
48 19 9
48 23 10
48 25 9
48 26 1
48 27 4
48 28 9
48 29 2
48 33 9
48 39 3
48 41 2
48 46 10
48 47 2
49 4 7
49 5 3
49 6 4
49 10 3
49 11 1
49 12 4
49 14 2
49 15 2
49 16 1
49 18 5
49 20 6
49 21 7
49 24 7
49 25 7
49 26 5
49 27 3
49 30 3
49 31 4
49 33 10
49 37 9
49 41 2
49 42 2
49 43 7
49 46 6
49 47 1
50 0 8
50 2 8
50 4 7
50 8 10
50 10 10
50 11 5
50 13 4
50 15 2
50 16 9
50 17 5
50 18 9
50 19 6
50 20 5
50 21 9
50 22 3
50 23 7
50 27 8
50 29 4
50 30 6
50 32 4
50 34 5
50 35 7
50 36 8
50 38 7
50 40 8
50 41 5
50 42 10
50 43 3
50 47 7
50 48 10
50 49 2
51 0 4
51 3 3
51 6 10
51 8 5
51 9 7
51 10 7
51 11 3
51 12 10
51 13 6
51 14 5
51 15 7
51 18 2
51 20 6
51 21 7
51 24 10
51 25 9
51 27 9
51 30 3
51 32 10
51 33 5
51 35 7
51 37 1
51 39 8
51 42 2
51 43 1
51 45 10
51 46 5
51 47 3
51 48 5
52 0 7
52 2 8
52 4 10
52 7 7
52 8 9
52 9 5
52 11 3
52 13 2
52 16 2
52 19 9
52 20 5
52 23 4
52 28 5
52 29 1
52 30 6
52 32 9
52 33 8
52 34 10
52 36 8
52 38 5
52 40 7
52 41 10
52 44 8
52 45 10
52 46 6
52 47 10
52 48 6
52 51 4
53 0 9
53 3 6
53 4 3
53 6 8
53 7 5
53 8 9
53 9 6
53 11 6
53 13 9
53 14 3
53 19 10
53 20 6
53 21 4
53 22 5
53 23 4
53 24 6
53 26 4
53 27 10
53 31 6
53 32 4
53 33 10
53 34 10
53 35 10
53 40 10
53 45 9
53 46 10
53 48 6
53 51 4
54 0 2
54 1 9
54 2 6
54 3 4
54 4 7
54 5 9
54 8 1
54 14 8
54 17 1
54 22 10
54 23 6
54 25 3
54 28 6
54 30 2
54 31 6
54 34 9
54 35 2
54 36 4
54 37 8
54 43 7
54 44 9
54 48 9
54 49 3
54 50 3
54 53 4
55 1 4
55 3 5
55 4 7
55 5 2
55 6 5
55 7 5
55 8 1
55 11 6
55 17 8
55 22 9
55 24 5
55 25 8
55 26 9
55 27 2
55 29 3
55 30 8
55 32 10
55 36 9
55 41 8
55 42 6
55 43 8
55 44 9
55 46 2
55 51 5
55 52 6
56 0 9
56 5 9
56 6 9
56 7 6
56 8 10
56 13 10
56 14 1
56 16 2
56 18 7
56 22 7
56 23 9
56 27 1
56 28 6
56 29 9
56 32 9
56 33 9
56 34 2
56 36 1
56 38 1
56 41 9
56 42 5
56 46 2
56 47 1
56 50 5
56 52 7
57 0 2
57 3 10
57 6 8
57 7 7
57 10 8
57 12 7
57 13 5
57 16 10
57 21 2
57 25 2
57 28 1
57 30 9
57 31 1
57 32 7
57 33 2
57 34 3
57 35 10
57 40 4
57 41 3
57 42 1
57 43 4
57 46 2
57 48 3
57 49 2
57 50 7
57 52 5
57 54 4
57 56 8
58 1 3
58 2 2
58 5 4
58 6 7
58 7 1
58 9 1
58 11 4
58 12 4
58 17 9
58 19 9
58 20 6
58 22 2
58 24 4
58 25 5
58 26 7
58 27 3
58 28 6
58 29 10
58 33 4
58 34 3
58 36 7
58 39 4
58 40 5
58 41 3
58 42 2
58 44 6
58 45 2
58 47 4
58 49 8
58 51 2
58 54 2
58 56 8
59 3 8
59 4 6
59 6 4
59 7 4
59 11 4
59 15 5
59 17 5
59 20 10
59 22 4
59 23 2
59 24 10
59 26 6
59 27 1
59 32 1
59 33 9
59 37 3
59 39 3
59 41 6
59 43 5
59 44 9
59 45 10
59 46 4
59 47 5
59 49 5
59 52 10
59 53 7
59 56 10
59 57 6
